8535
0 1 1 1 0 0 1 1 0 0 1 1 0 0 0 0 0 0 0 0 0 0 0 0 0 0 0 0 0 0 
10 10 10 10 10 10 10 1 1 1 1 11 11 11 11 2 2 3 2 3 2 6 6 6 6 6 6 7 7 7 7 9 9 9 10 2 3 24 24 28 29 12 15 12 24 11 18 27 29 28 29 27 13 29 24 26 13 18 18 18 12 15 28 26 26 13 26 13 15 12 
